c preprocessed version of pr299.tsp, 80 vertices, 229 edges
p td 80 229
1 0
0 4
0 3
8 0
2 1
1 3
8 1
2 3
2 76
2 9
8 2
4 3
5 3
6 3
76 3
12 3
3 13
3 14
4 5
8 4
5 6
8 5
6 7
8 6
8 7
8 9
8 71
9 10
9 76
9 26
9 69
9 71
10 11
10 76
10 26
11 12
11 76
11 25
11 26
12 13
76 12
12 24
12 25
13 14
13 24
15 14
21 14
24 14
14 23
14 22
16 15
15 18
15 21
15 19
15 20
16 17
16 18
17 18
17 35
17 34
17 36
17 37
17 38
17 57
18 19
18 35
19 20
19 35
21 20
20 35
20 34
20 32
20 33
21 22
21 31
21 32
22 23
22 31
24 23
23 74
23 31
23 30
24 25
24 74
25 26
74 25
25 29
25 75
25 27
27 26
26 47
26 69
27 28
27 75
27 47
27 46
29 28
43 28
28 75
28 42
28 46
28 45
29 30
74 29
43 29
29 75
31 30
74 30
43 30
44 30
31 32
31 44
32 33
44 32
32 42
32 41
32 40
34 33
36 33
73 33
33 39
33 40
35 34
34 36
36 37
36 73
37 38
37 73
38 39
38 73
38 57
40 39
73 39
56 39
39 57
41 40
52 40
40 56
40 55
40 54
42 41
41 53
41 52
43 42
42 45
44 42
42 53
43 44
45 46
52 45
53 45
45 49
45 50
45 51
46 47
46 48
46 49
48 47
47 69
49 48
68 48
48 69
49 50
49 68
51 50
68 50
50 72
50 67
52 51
51 64
51 72
52 53
52 54
52 64
55 54
60 54
54 64
54 63
56 55
55 59
55 60
56 57
56 59
56 58
57 58
57 62
58 59
62 58
58 61
59 60
59 61
60 61
60 63
62 61
61 63
62 63
62 65
62 66
62 67
63 64
63 65
65 64
64 72
64 66
65 66
66 67
66 72
68 67
70 67
67 71
72 67
68 69
68 70
69 70
69 71
70 71
77 79
77 78
77 16
77 17
78 79
78 3
78 6
78 7
78 16
78 15
78 14
79 7
79 8
